clingo version 4.5.4
Reading from out.txt ...
Solving...
Answer: 1
birthPlace("David_A._Katz","Toledo,_Ohio") deathPlace("David_A._Katz","Sylvania,_Ohio") successor("David_A._Katz","Jack_Zouhary") birthPlace("Bill_Clinton","Hope,_Arkansas") birthPlace("Jack_Zouhary","Ohio") birthPlace("Jack_Zouhary","United_States") birthPlace("Jack_Zouhary","Toledo,_Ohio") country("Ohio_State_University","U.S.") predecessor("Bill_Clinton","George_H._W._Bush") predecessor("Bill_Clinton","Frank_D._White") predecessor("Jack_Zouhary","David_A._Katz") child("Bill_Clinton","Chelsea_Clinton") country("Toledo,_Ohio","United_States") country("Sylvania,_Ohio","United_States") party("Bill_Clinton","Democratic_Party_(United_States)") president("Ohio_State_University","Michael_V._Drake") spouse("Bill_Clinton","Hillary_Clinton") successor("Bill_Clinton","Frank_D._White") successor("Bill_Clinton","Jim_Guy_Tucker") successor("Bill_Clinton","George_W._Bush") successor("Bill_Clinton","Steve_Clark_(Arkansas_politician)") birthPlace("Chelsea_Clinton","Little_Rock,_Arkansas") birthPlace("George_H._W._Bush","Milton,_Massachusetts") birthPlace("Frank_D._White","Texas") birthPlace("Frank_D._White","Texarkana,_Texas") birthPlace("Joe_Purcell","United_States") birthPlace("Joe_Purcell","Warren,_Arkansas") birthPlace("Joe_Purcell","Arkansas") birthPlace("Joe_Purcell","Bradley_County,_Arkansas") birthPlace("Al_Gore","Washington,_D.C.") birthPlace("Virginia_Clinton_Kelley","Bodcaw,_Arkansas") birthPlace("William_Jefferson_Blythe_Jr.","United_States") birthPlace("William_Jefferson_Blythe_Jr.","Sherman,_Texas") birthPlace("David_Pryor","Camden,_Arkansas") birthPlace("Jim_Guy_Tucker","Oklahoma_City") birthPlace("Jim_Guy_Tucker","Oklahoma_City,_Oklahoma") birthPlace("George_W._Bush","New_Haven,_Connecticut") birthPlace("Hillary_Clinton","Chicago") birthPlace("Winston_Bryant","Malvern,_Arkansas") deathPlace("Frank_D._White","Little_Rock,_Arkansas") deathPlace("Joe_Purcell","Arkansas") deathPlace("Joe_Purcell","Saline_County,_Arkansas") deathPlace("Joe_Purcell","Benton,_Arkansas") deathPlace("Virginia_Clinton_Kelley","Hot_Springs,_Arkansas") deathPlace("William_Jefferson_Blythe_Jr.","Sikeston,_Missouri") deathPlace("William_Jefferson_Blythe_Jr.","United_States") country("Yale_University","U.S.") country("Georgetown_University","US") leader("David_Pryor","George_J._Mitchell") nationality("Virginia_Clinton_Kelley","American") predecessor("Frank_D._White","Bill_Clinton") predecessor("Democratic_Party_(United_States)","Democratic-Republican_Party") predecessor("Jim_Guy_Tucker","Bill_Clinton") predecessor("Jim_Guy_Tucker","Ray_Thornton") predecessor("Jim_Guy_Tucker","Wilbur_Mills") predecessor("Jim_Guy_Tucker","Winston_Bryant") predecessor("George_W._Bush","Bill_Clinton") predecessor("George_W._Bush","Ann_Richards") spouse("Frank_D._White","div.") birthYear("Chelsea_Clinton","1980") birthYear("Virginia_Clinton_Kelley","1923") birthYear("William_Jefferson_Blythe_Jr.","1910") orderInOffice("Frank_D._White","41st") orderInOffice("David_Pryor","fromArkansas'4thdistrict") orderInOffice("Jim_Guy_Tucker","13th") orderInOffice("Jim_Guy_Tucker","Member") orderInOffice("Jim_Guy_Tucker","43rd") child("George_H._W._Bush","Marvin_Bush") child("George_H._W._Bush","Dorothy_Bush_Koch") child("George_H._W._Bush","Jeb_Bush") child("George_H._W._Bush","George_W._Bush") child("George_H._W._Bush","Neil_Bush") child("Virginia_Clinton_Kelley","Roger_Clinton,_Jr.") child("Virginia_Clinton_Kelley","Bill_Clinton") child("David_Pryor","Mark_Pryor") child("George_W._Bush","Barbara_Bush_(born_1981)") child("George_W._Bush","Jenna_Bush_Hager") child("Hillary_Clinton","Chelsea_Clinton") country("Frank_D._White","United_States") country("Hope,_Arkansas","United_States") country("Al_Gore","United_States") country("Democratic_Party_(United_States)","United_States") country("Jim_Guy_Tucker","United_States_of_America") country("Winston_Bryant","United_States_of_America") knownFor("Virginia_Clinton_Kelley","President_of_the_United_States") knownFor("William_Jefferson_Blythe_Jr.","Bill_Clinton") nationality("William_Jefferson_Blythe_Jr.","United_States") otherParty("Hillary_Clinton","Republican_Party_(United_States)") parent("Chelsea_Clinton","Bill_Clinton") parent("Chelsea_Clinton","Hillary_Clinton") party("Chelsea_Clinton","Democratic_Party_(United_States)") party("George_H._W._Bush","Republican_Party_(United_States)") party("Frank_D._White","Democratic_Party_(United_States)") party("Frank_D._White","Republican_Party_(United_States)") party("Joe_Purcell","Democratic_Party_(United_States)") party("Al_Gore","Democratic_Party_(United_States)") party("Virginia_Clinton_Kelley","Democratic_Party_(United_States)") party("David_Pryor","Democratic_Party_(United_States)") party("Jim_Guy_Tucker","Democratic_Party_(United_States)") party("George_W._Bush","Republican_Party_(United_States)") party("Hillary_Clinton","Democratic_Party_(United_States)") party("Winston_Bryant","Democratic_Party_(United_States)") predecessor("George_H._W._Bush","Charles_Woodruff_Yost") predecessor("George_H._W._Bush","Walter_Mondale") predecessor("George_H._W._Bush","John_Dowdy") predecessor("George_H._W._Bush","Bob_Dole") predecessor("George_H._W._Bush","David_K._E._Bruce") predecessor("George_H._W._Bush","William_Colby") predecessor("George_H._W._Bush","Ronald_Reagan") predecessor("Joe_Purcell","David_Pryor") predecessor("Joe_Purcell","Bob_C._Riley") predecessor("Joe_Purcell","Bruce_Bennett_(politician)") predecessor("Al_Gore","Robin_Beard") predecessor("Al_Gore","Dan_Quayle") predecessor("Al_Gore","Howard_Baker") predecessor("Al_Gore","Joe_L._Evins") predecessor("David_Pryor","Bill_Gwatney") predecessor("Hillary_Clinton","Condoleezza_Rice") predecessor("Hillary_Clinton","Daniel_Patrick_Moynihan") predecessor("Hillary_Clinton","Barbara_Bush") predecessor("Hillary_Clinton","Gay_Daniels_White") predecessor("Winston_Bryant","Joe_Purcell") predecessor("Winston_Bryant","George_O._Jernigan_Jr.") predecessor("Winston_Bryant","Steve_Clark_(Arkansas_politician)") president("George_H._W._Bush","Gerald_Ford") president("George_H._W._Bush","Richard_Nixon") president("George_H._W._Bush","Ronald_Reagan") president("Al_Gore","Bill_Clinton") president("Yale_University","Peter_Salovey") president("Georgetown_University","John_J._DeGioia") president("Hillary_Clinton","Barack_Obama") president("Hillary_Clinton","Bill_Clinton") restingPlace("Virginia_Clinton_Kelley","Hope,_Arkansas") restingPlace("William_Jefferson_Blythe_Jr.","United_States") restingPlace("William_Jefferson_Blythe_Jr.","Hope,_Arkansas") spouse("Chelsea_Clinton","Marc_Mezvinsky") spouse("George_H._W._Bush","Barbara_Bush") spouse("Al_Gore","Tipper_Gore") spouse("George_W._Bush","Laura_Bush") spouse("Hillary_Clinton","Bill_Clinton") stateOfOrigin("William_Jefferson_Blythe_Jr.","United_States") successor("George_H._W._Bush","John_A._Scali") successor("George_H._W._Bush","Stansfield_Turner") successor("George_H._W._Bush","Bill_Clinton") successor("George_H._W._Bush","Mary_Louise_Smith_(Republican_Party_leader)") successor("George_H._W._Bush","Dan_Quayle") successor("George_H._W._Bush","Thomas_S._Gates,_Jr.") successor("George_H._W._Bush","William_Reynolds_Archer_Jr.") successor("Frank_D._White","Bill_Clinton") successor("Joe_Purcell","Bill_Clinton") successor("Joe_Purcell","Ray_Thornton") successor("Joe_Purcell","Winston_Bryant") successor("Al_Gore","Jim_Cooper") successor("Al_Gore","Harlan_Mathews") successor("Al_Gore","Bart_Gordon") successor("Al_Gore","Dick_Cheney") successor("Jim_Guy_Tucker","Ed_Bethune") successor("Jim_Guy_Tucker","Bill_Clinton") successor("Jim_Guy_Tucker","Mike_Huckabee") successor("George_W._Bush","Barack_Obama") successor("George_W._Bush","Rick_Perry") successor("Hillary_Clinton","Laura_Bush") successor("Hillary_Clinton","Betty_Tucker") successor("Hillary_Clinton","John_Kerry") successor("Hillary_Clinton","Kirsten_Gillibrand") successor("Hillary_Clinton","Gay_Daniels_White") successor("Winston_Bryant","Mark_Pryor") successor("Winston_Bryant","Jim_Guy_Tucker") successor("Winston_Bryant","Paul_Riviere") negchild("Marc_Mezvinsky","Chelsea_Clinton") negchild("Chelsea_Clinton","Hillary_Clinton") negchild("Chelsea_Clinton","Bill_Clinton") negchild("William_Jefferson_Blythe_Jr.","Toledo,_Ohio") negchild("William_Jefferson_Blythe_Jr.","Sylvania,_Ohio") negchild("William_Jefferson_Blythe_Jr.","Frank_D._White") negchild("William_Jefferson_Blythe_Jr.","Hope,_Arkansas") negchild("William_Jefferson_Blythe_Jr.","Al_Gore") negchild("William_Jefferson_Blythe_Jr.","Democratic_Party_(United_States)") negchild("Bill_Clinton","George_H._W._Bush") negchild("Marvin_Bush","Barbara_Bush") negchild("Dorothy_Bush_Koch","Barbara_Bush") negchild("Jeb_Bush","Barbara_Bush") negchild("George_W._Bush","Barbara_Bush") negchild("Neil_Bush","Barbara_Bush") negchild("Barbara_Bush_(born_1981)","Laura_Bush") negchild("Jenna_Bush_Hager","Laura_Bush") negchild("Bill_Clinton","Hillary_Clinton") negchild("Hillary_Clinton","Bill_Clinton") negchild("Jack_Zouhary","Bill_Clinton") negchild("Joe_Purcell","Bill_Clinton") negchild("William_Jefferson_Blythe_Jr.","Bill_Clinton") negchild("Al_Gore","Frank_D._White") negchild("Al_Gore","Jim_Guy_Tucker") negchild("Al_Gore","George_W._Bush") negchild("Al_Gore","Steve_Clark_(Arkansas_politician)") negchild("Hillary_Clinton","Frank_D._White") negchild("Hillary_Clinton","Jim_Guy_Tucker") negchild("Hillary_Clinton","George_W._Bush") negchild("Hillary_Clinton","Steve_Clark_(Arkansas_politician)") negchild("Jack_Zouhary","David_A._Katz") negchild("Frank_D._White","Bill_Clinton") negchild("Jim_Guy_Tucker","Bill_Clinton") negchild("George_W._Bush","Bill_Clinton") negchild("Steve_Clark_(Arkansas_politician)","Bill_Clinton") negchild("John_A._Scali","George_H._W._Bush") negchild("Stansfield_Turner","George_H._W._Bush") negchild("Mary_Louise_Smith_(Republican_Party_leader)","George_H._W._Bush") negchild("Dan_Quayle","George_H._W._Bush") negchild("Thomas_S._Gates,_Jr.","George_H._W._Bush") negchild("William_Reynolds_Archer_Jr.","George_H._W._Bush") negchild("Bill_Clinton","Frank_D._White") negchild("Bill_Clinton","Joe_Purcell") negchild("Ray_Thornton","Joe_Purcell") negchild("Winston_Bryant","Joe_Purcell") negchild("Jim_Cooper","Al_Gore") negchild("Harlan_Mathews","Al_Gore") negchild("Bart_Gordon","Al_Gore") negchild("Dick_Cheney","Al_Gore") negchild("Ed_Bethune","Jim_Guy_Tucker") negchild("Bill_Clinton","Jim_Guy_Tucker") negchild("Mike_Huckabee","Jim_Guy_Tucker") negchild("Barack_Obama","George_W._Bush") negchild("Rick_Perry","George_W._Bush") negchild("Laura_Bush","Hillary_Clinton") negchild("Betty_Tucker","Hillary_Clinton") negchild("John_Kerry","Hillary_Clinton") negchild("Kirsten_Gillibrand","Hillary_Clinton") negchild("Gay_Daniels_White","Hillary_Clinton") negchild("Mark_Pryor","Winston_Bryant") negchild("Jim_Guy_Tucker","Winston_Bryant") negchild("Paul_Riviere","Winston_Bryant") negchild("Democratic_Party_(United_States)","Democratic-Republican_Party") negchild("Jim_Guy_Tucker","Ray_Thornton") negchild("Jim_Guy_Tucker","Wilbur_Mills") negchild("George_W._Bush","Ann_Richards") negchild("George_H._W._Bush","Charles_Woodruff_Yost") negchild("George_H._W._Bush","Walter_Mondale") negchild("George_H._W._Bush","John_Dowdy") negchild("George_H._W._Bush","Bob_Dole") negchild("George_H._W._Bush","David_K._E._Bruce") negchild("George_H._W._Bush","William_Colby") negchild("George_H._W._Bush","Ronald_Reagan") negchild("Joe_Purcell","David_Pryor") negchild("Joe_Purcell","Bob_C._Riley") negchild("Joe_Purcell","Bruce_Bennett_(politician)") negchild("Al_Gore","Robin_Beard") negchild("Al_Gore","Dan_Quayle") negchild("Al_Gore","Howard_Baker") negchild("Al_Gore","Joe_L._Evins") negchild("David_Pryor","Bill_Gwatney") negchild("Hillary_Clinton","Condoleezza_Rice") negchild("Hillary_Clinton","Daniel_Patrick_Moynihan") negchild("Hillary_Clinton","Barbara_Bush") negchild("Hillary_Clinton","Gay_Daniels_White") negchild("Winston_Bryant","George_O._Jernigan_Jr.") negchild("Winston_Bryant","Steve_Clark_(Arkansas_politician)") negchild("Laura_Bush","George_H._W._Bush") negchild("Betty_Tucker","George_H._W._Bush") negchild("John_Kerry","George_H._W._Bush") negchild("Kirsten_Gillibrand","George_H._W._Bush") negchild("Gay_Daniels_White","George_H._W._Bush") negchild("Laura_Bush","Frank_D._White") negchild("Betty_Tucker","Frank_D._White") negchild("John_Kerry","Frank_D._White") negchild("Kirsten_Gillibrand","Frank_D._White") negchild("Gay_Daniels_White","Frank_D._White") negchild("Laura_Bush","George_W._Bush") negchild("Betty_Tucker","George_W._Bush") negchild("John_Kerry","George_W._Bush") negchild("Kirsten_Gillibrand","George_W._Bush") negchild("Gay_Daniels_White","George_W._Bush") negchild("Ray_Thornton","George_H._W._Bush") negchild("Wilbur_Mills","George_H._W._Bush") negchild("Winston_Bryant","George_H._W._Bush") negchild("Ann_Richards","George_H._W._Bush") negchild("Ray_Thornton","Frank_D._White") negchild("Wilbur_Mills","Frank_D._White") negchild("Winston_Bryant","Frank_D._White") negchild("Ann_Richards","Frank_D._White") negchild("George_H._W._Bush","Bill_Clinton") negchild("Frank_D._White","Charles_Woodruff_Yost") negchild("Frank_D._White","Walter_Mondale") negchild("Frank_D._White","John_Dowdy") negchild("Frank_D._White","Bob_Dole") negchild("Frank_D._White","David_K._E._Bruce") negchild("Frank_D._White","William_Colby") negchild("Frank_D._White","Ronald_Reagan") negchild("George_O._Jernigan_Jr.","David_Pryor") negchild("Steve_Clark_(Arkansas_politician)","David_Pryor") negchild("George_O._Jernigan_Jr.","Bob_C._Riley") negchild("Steve_Clark_(Arkansas_politician)","Bob_C._Riley") negchild("George_O._Jernigan_Jr.","Bruce_Bennett_(politician)") negchild("Steve_Clark_(Arkansas_politician)","Bruce_Bennett_(politician)") negchild("Bob_C._Riley","Bill_Gwatney") negchild("Bruce_Bennett_(politician)","Bill_Gwatney") negchild("Wilbur_Mills","Joe_Purcell") negchild("Bill_Clinton","George_O._Jernigan_Jr.") negchild("Ray_Thornton","George_O._Jernigan_Jr.") negchild("Wilbur_Mills","George_O._Jernigan_Jr.") negchild("Bill_Clinton","Steve_Clark_(Arkansas_politician)") negchild("Ray_Thornton","Steve_Clark_(Arkansas_politician)") negchild("Wilbur_Mills","Steve_Clark_(Arkansas_politician)") negchild("Jack_Zouhary","Robin_Beard") negchild("Jack_Zouhary","Dan_Quayle") negchild("Jack_Zouhary","Howard_Baker") negchild("Jack_Zouhary","Joe_L._Evins") negchild("Joe_Purcell","Robin_Beard") negchild("Joe_Purcell","Dan_Quayle") negchild("Joe_Purcell","Howard_Baker") negchild("Joe_Purcell","Joe_L._Evins") negchild("William_Jefferson_Blythe_Jr.","Robin_Beard") negchild("William_Jefferson_Blythe_Jr.","Dan_Quayle") negchild("William_Jefferson_Blythe_Jr.","Howard_Baker") negchild("William_Jefferson_Blythe_Jr.","Joe_L._Evins") negchild("Jack_Zouhary","Democratic-Republican_Party") negchild("Joe_Purcell","Democratic-Republican_Party") negchild("William_Jefferson_Blythe_Jr.","Democratic-Republican_Party") negchild("Bill_Clinton","Bill_Clinton") negchild("Hillary_Clinton","Hillary_Clinton") negchild("Chelsea_Clinton","Virginia_Clinton_Kelley") negchild("Chelsea_Clinton","William_Jefferson_Blythe_Jr.") negchild("Virginia_Clinton_Kelley","William_Jefferson_Blythe_Jr.") negchild("Al_Gore","George_H._W._Bush") negchild("Al_Gore","Joe_Purcell") negchild("Hillary_Clinton","George_H._W._Bush") negchild("Hillary_Clinton","Joe_Purcell") negchild("Jim_Cooper","George_H._W._Bush") negchild("Harlan_Mathews","George_H._W._Bush") negchild("Bart_Gordon","George_H._W._Bush") negchild("Dick_Cheney","George_H._W._Bush") negchild("Jim_Cooper","Frank_D._White") negchild("Harlan_Mathews","Frank_D._White") negchild("Bart_Gordon","Frank_D._White") negchild("Dick_Cheney","Frank_D._White") negchild("Bill_Clinton","President_of_the_United_States") negchild("Jim_Cooper","Joe_Purcell") negchild("Harlan_Mathews","Joe_Purcell") negchild("Bart_Gordon","Joe_Purcell") negchild("Dick_Cheney","Joe_Purcell") negchild("Jim_Cooper","Jim_Guy_Tucker") negchild("Harlan_Mathews","Jim_Guy_Tucker") negchild("Bart_Gordon","Jim_Guy_Tucker") negchild("Dick_Cheney","Jim_Guy_Tucker") negchild("Laura_Bush","Joe_Purcell") negchild("Betty_Tucker","Joe_Purcell") negchild("John_Kerry","Joe_Purcell") negchild("Kirsten_Gillibrand","Joe_Purcell") negchild("Gay_Daniels_White","Joe_Purcell") negchild("Laura_Bush","Jim_Guy_Tucker") negchild("Betty_Tucker","Jim_Guy_Tucker") negchild("John_Kerry","Jim_Guy_Tucker") negchild("Kirsten_Gillibrand","Jim_Guy_Tucker") negchild("Gay_Daniels_White","Jim_Guy_Tucker") negchild("George_H._W._Bush","George_H._W._Bush")
Optimization: 0
OPTIMUM FOUND

Models       : 1     
  Optimum    : yes
Optimization : 0
Calls        : 1
Time         : 0.038s (Solving: 0.00s 1st Model: 0.00s Unsat: 0.00s)
CPU Time     : 0.040s
Threads      : 4        (Winner: 3)
